p cnf 50 20
x 2 -4 -10 11 12 13 14 -15 -16 -20 23 -28 29 -30 -31 32 -34 -36 -37 -38 -39 41 -44 45 -48 49 0
x 1 -3 -5 -6 -7 -9 -10 12 14 16 -19 -20 22 -23 25 26 29 -33 -34 36 38 -39 40 -43 -44 46 -47 -48 50 0
x 1 -2 3 5 -6 -7 -8 -9 -10 -12 -13 15 17 18 -19 22 26 27 -28 31 32 33 -36 37 -39 -40 -43 -44 -46 48 -49 50 0
x -2 -4 -6 7 -12 -13 14 -17 -25 27 -31 33 -35 -38 40 42 43 -44 46 49 -50 0
x -1 -2 -5 -7 -8 9 -10 13 -16 19 -21 24 -25 28 32 33 35 40 -42 -43 -44 47 48 -49 -50 0
x -1 -5 6 8 -12 -14 -15 18 -19 -21 -30 -31 -33 35 -36 -37 38 -39 -40 -41 42 -44 48 49 -50 0
x 1 -8 9 -10 -11 -12 13 -16 -17 -19 21 -23 -24 25 26 -29 30 -34 -35 -37 38 -39 40 -41 44 49 -50 0
x -1 4 6 -8 -12 -13 -14 16 20 24 25 -26 27 -30 -33 -34 35 -39 -41 43 44 0
x -2 -3 -8 -9 -13 -14 -16 17 -20 -23 -24 25 -26 -32 34 -37 40 -41 -43 -47 -48 -50 0
x 1 5 -7 8 12 -13 -14 16 -18 -19 21 -26 -30 31 33 -34 45 46 50 0
x 3 4 5 6 -7 11 13 14 19 21 22 23 26 27 29 -31 32 -34 35 -36 -41 -47 48 -49 0
x 2 -5 8 11 12 13 -15 -18 19 20 -21 -22 -23 24 25 27 28 -33 35 -39 46 -47 50 0
x 2 5 -10 11 -12 -13 -14 -20 -21 23 -25 26 -28 33 -35 -39 -40 42 43 -44 -46 0
x -2 -4 5 7 8 -9 10 12 -14 15 16 -17 -18 -19 -20 -23 24 29 32 -35 37 -38 -39 40 41 42 -43 -44 -45 -46 47 -48 -49 50 0
x 1 -2 -3 4 -6 -7 -8 -10 -12 -13 -16 -17 18 -19 20 -21 24 25 28 30 31 35 36 -39 41 -43 44 -46 50 0
x 2 4 7 -9 10 11 18 19 -22 -23 -25 29 -30 -31 -32 34 35 -41 42 44 -45 47 50 0
x -1 2 -3 -4 -5 -6 7 8 -11 12 -15 17 18 19 -21 23 -24 26 27 29 30 34 38 40 -46 48 -50 0
x 3 -4 5 6 -13 -15 -16 18 -20 24 25 31 -32 35 -36 -37 43 -44 50 0
x -2 4 -8 -12 -14 16 17 -20 26 -27 28 29 -34 35 -36 38 -41 -42 46 47 -49 50 0
x -2 -3 -4 -5 6 8 -11 -15 -16 -17 -18 21 22 24 -25 27 29 -30 -33 -34 36 -37 42 -43 44 49 50 0
g -15